
%FILE DATA:	Soccer Computational Problem for MiniZinc Models	%
%AUTHOR:	Jack Wall	%
%CONTACT:  	116397063@umail.ucc.ie			%
%LAST UPDATE:	03/12/2020, 11:03:47						%
%DESCRIPTION: 	168 games played with 14 games left				%


n=14; %number of teams

%Games to play
games=[|2,14|11,2|11,3|14,11|4,14|6,3|8,6|11,5|1,5|4,9|9,11|3,10|13,9|7,4|];

%Initial points
iPoints=[37,34,35,28,33,28,36,39,32,36,26,36,15,37];

%POSITION CONSTRAINTS
% [|teamID, operator, position|...]
% operators index:
%  1 for =  operator
%  2 for >  operator
%  3 for >= operator
%  4 for <  operator
%  5 for <= operator
positionConstraints=[|8,1,1|3,1,2|14,5,3|];